p cnf 1123 2463
a 1 2 3 4 21 22 23 24 25 26 27 28 29 30 31 32 33 34 35 36 37 38 40 41 42 43 44 45 46 47 48 49 50 51 53 54 55 56 57 58 59 60 61 62 63 64 66 67 68 69 70 71 72 73 74 75 76 77 78 79 80 81 82 83 84 85 86 87 88 89 90 91 92 93 94 95 96 97 98 99 100 101 102 103 104 0
e 5 6 7 8 9 10 11 12 13 14 15 16 17 18 19 20 105 106 107 108 109 110 111 112 113 114 115 116 117 118 119 120 121 122 123 124 125 126 127 128 129 130 131 132 133 134 135 136 137 138 139 140 141 142 143 144 145 146 147 148 149 150 151 152 153 154 155 156 157 158 159 160 161 162 163 164 165 166 167 168 169 170 171 172 173 174 175 176 177 178 179 180 181 182 183 184 185 186 187 188 189 190 191 192 193 194 195 196 197 198 199 200 201 202 203 204 205 206 207 208 209 210 211 212 213 214 215 216 217 218 219 220 221 222 223 224 225 226 227 228 229 230 231 232 233 234 235 236 237 238 239 240 241 242 243 244 245 246 247 248 249 250 251 252 253 254 255 256 257 258 259 260 261 262 263 264 265 266 267 268 269 270 271 272 273 274 275 276 277 278 279 280 281 282 283 284 285 286 287 288 289 290 291 292 293 294 295 296 297 298 299 300 301 302 303 304 305 306 307 308 309 310 311 312 313 314 315 316 317 318 319 320 321 322 323 324 325 326 327 328 329 330 331 332 333 334 335 336 337 338 339 340 341 342 343 344 345 346 347 348 349 350 351 352 353 354 355 356 357 358 359 360 361 362 363 364 365 366 367 368 369 370 371 372 373 374 375 376 377 378 379 380 381 382 383 384 385 386 387 388 389 390 391 392 393 394 395 396 397 398 399 400 401 402 403 404 405 406 407 408 409 410 411 412 413 414 415 416 417 418 419 420 421 422 423 424 425 426 427 428 429 430 431 432 433 434 435 436 437 438 439 440 441 442 443 444 445 446 447 448 449 450 451 452 453 454 455 456 457 458 459 460 461 462 463 464 465 466 467 468 469 470 471 472 473 474 475 476 477 478 479 480 481 482 483 484 485 486 487 488 489 490 491 492 493 494 495 496 497 498 499 500 501 502 503 504 505 506 507 508 509 510 511 512 513 514 515 516 517 518 519 520 521 522 523 524 525 526 527 528 529 530 531 532 533 534 535 536 537 538 539 540 541 542 543 544 545 546 547 548 549 550 551 552 553 554 555 556 557 558 559 560 561 562 563 564 565 566 567 568 569 570 571 572 573 574 575 576 577 578 579 580 581 582 583 584 585 586 587 588 589 590 591 592 593 594 595 596 597 598 599 600 601 602 603 604 605 606 607 608 609 610 611 612 613 614 615 616 617 618 619 620 621 622 623 624 625 626 627 628 629 630 631 632 633 634 635 636 637 638 639 640 641 642 643 644 645 646 647 648 649 650 651 652 653 654 655 656 657 658 659 660 661 662 663 664 665 666 667 668 669 670 671 672 673 674 675 676 677 678 679 680 681 682 683 684 685 686 687 688 689 690 691 692 693 694 695 696 697 698 699 700 701 702 703 704 705 706 707 708 709 710 711 712 713 714 715 716 717 718 719 720 721 722 723 724 725 726 727 728 729 730 731 732 733 734 735 736 737 738 739 740 741 742 743 744 745 746 747 748 749 750 751 752 753 754 755 756 757 758 759 760 761 762 763 764 765 766 767 768 769 770 771 772 773 774 775 776 777 778 779 780 781 782 783 784 785 786 787 788 789 790 791 792 793 794 795 796 797 798 799 800 801 802 803 804 805 806 807 808 809 810 811 812 813 814 815 816 817 818 819 820 821 822 823 824 825 826 827 828 829 830 831 832 833 834 835 836 837 838 839 840 841 842 843 844 845 846 847 848 849 850 851 852 853 854 855 856 857 858 859 860 861 862 863 864 865 866 867 868 869 870 871 872 873 874 875 876 877 878 879 880 881 882 883 884 885 886 887 888 889 890 891 892 893 894 895 896 897 898 899 900 901 902 903 904 905 906 907 908 909 910 911 912 913 914 915 916 917 918 919 920 921 922 923 924 925 926 927 928 929 930 931 932 933 934 935 936 937 938 939 940 941 942 943 944 945 946 947 948 949 950 951 952 953 954 955 956 957 958 959 960 961 962 963 964 965 966 967 968 969 970 971 972 973 974 975 976 977 978 979 980 981 982 983 984 985 986 987 988 989 990 991 992 993 994 995 996 997 998 999 1000 1001 1002 1003 1004 1005 1006 1007 1008 1009 1010 1011 1012 1013 1014 1015 1016 1017 1018 1019 1020 1021 1022 1023 1024 1025 1026 1027 1028 1029 1030 1031 1032 1033 1034 1035 1036 1037 1038 1039 1040 1041 1042 1043 1044 1045 1046 1047 1048 1049 1050 1051 1052 1053 1054 1055 1056 1057 1058 1059 1060 1061 1062 1063 1064 1065 1066 1067 1068 1069 1070 1071 1072 1073 1074 1075 1076 1077 1078 1079 1080 1081 1082 1083 1084 1085 1086 1087 1088 1089 1090 1091 1092 1093 1094 1095 1096 1097 1098 1099 1100 1101 1102 1103 1104 1105 1106 1107 1108 1109 1110 1111 1112 1113 1114 1115 1116 1117 1118 1119 1120 1121 1122 1123 0
-1123 0
1123 -1003 0
1123 -1060 0
1123 -1093 0
1123 -1122 0
3 2 1 -1002 -1121 1122 0
1121 -1107 0
1121 -1120 0
-963 -960 -957 -1119 -1115 -1111 -671 1120 0
1119 -885 0
1119 -1118 0
-816 -1117 -799 -754 -1116 1118 0
1117 -776 0
1117 -870 0
1117 -750 0
1117 -751 0
1117 -752 0
1117 -753 0
1116 -1082 0
1116 -727 0
1116 -750 0
1116 -751 0
1116 -752 0
1116 -753 0
1115 -989 0
1115 -1114 0
-973 -1113 -972 -971 -1112 1114 0
1113 -969 0
1113 -815 0
1113 -750 0
1113 -751 0
1113 -752 0
1113 -753 0
1112 -1048 0
1112 -727 0
1112 -750 0
1112 -751 0
1112 -752 0
1112 -753 0
1111 -1110 0
1111 -1046 0
-1034 -1109 -1033 -1032 -1108 1110 0
1109 -1040 0
1109 -776 0
1109 -750 0
1109 -751 0
1109 -752 0
1109 -753 0
1108 -1077 0
1108 -815 0
1108 -750 0
1108 -751 0
1108 -752 0
1108 -753 0
-1106 -222 -221 -219 -216 -212 -209 -206 -203 -200 -197 -193 -184 -174 -171 -157 -146 1107 0
1106 -1097 0
1106 -1101 0
1106 -1105 0
1106 -508 0
1106 -511 0
1106 -514 0
-1104 -436 1105 0
1104 -1102 0
1104 -305 0
1104 -350 0
1104 -1103 0
1104 -367 0
-304 -303 -302 -301 -421 -327 1103 0
-304 -303 -302 -301 -278 -1066 1102 0
-1100 -540 1101 0
1100 -1098 0
1100 -522 0
1100 -523 0
1100 -1099 0
1100 -524 0
-304 -303 -302 -301 -366 -520 1099 0
-304 -303 -302 -301 -278 -1020 1098 0
-1018 -1096 1097 0
1096 -1094 0
1096 -1004 0
1096 -1005 0
1096 -1095 0
1096 -1006 0
-304 -303 -302 -301 -327 -1012 1095 0
-304 -303 -302 -301 -366 -1061 1094 0
4 2 1 -1002 -1092 1093 0
1092 -1076 0
1092 -1091 0
-988 -985 -982 -1090 -1086 -1081 -671 1091 0
1090 -1089 0
1090 -964 0
-948 -947 -946 -1088 -1087 1089 0
1088 -944 0
1088 -798 0
1088 -750 0
1088 -751 0
1088 -752 0
1088 -753 0
1087 -1053 0
1087 -850 0
1087 -750 0
1087 -751 0
1087 -752 0
1087 -753 0
1086 -1085 0
1086 -885 0
-869 -852 -851 -1084 -1083 1085 0
1084 -817 0
1084 -868 0
1084 -750 0
1084 -751 0
1084 -752 0
1084 -753 0
1083 -1082 0
1083 -850 0
1083 -750 0
1083 -751 0
1083 -752 0
1083 -753 0
-874 -873 -872 1082 0
1081 -1080 0
1081 -1046 0
-1039 -1038 -1037 -1079 -1078 1080 0
1079 -1035 0
1079 -868 0
1079 -750 0
1079 -751 0
1079 -752 0
1079 -753 0
1078 -1077 0
1078 -798 0
1078 -750 0
1078 -751 0
1078 -752 0
1078 -753 0
-1044 -1043 -1042 1077 0
-1075 -222 -221 -219 -216 -212 -209 -206 -203 -200 -197 -193 -184 -174 -171 -157 -146 1076 0
1075 -1065 0
1075 -1070 0
1075 -1074 0
1075 -533 0
1075 -536 0
1075 -539 0
-515 -1073 1074 0
1073 -1071 0
1073 -1072 0
1073 -497 0
1073 -498 0
1073 -499 0
-304 -303 -302 -301 -349 -495 1072 0
-304 -303 -302 -301 -401 -1025 1071 0
-436 -1069 1070 0
1069 -1067 0
1069 -1068 0
1069 -402 0
1069 -403 0
1069 -420 0
-304 -303 -302 -301 -419 -368 1068 0
-304 -303 -302 -301 -401 -1066 1067 0
1066 -423 0
1066 -424 0
1066 -425 0
-1018 -1064 1065 0
1064 -1062 0
1064 -1063 0
1064 -1009 0
1064 -1010 0
1064 -1011 0
-304 -303 -302 -301 -419 -1007 1063 0
-304 -303 -302 -301 -349 -1061 1062 0
1061 -1014 0
1061 -1015 0
1061 -1016 0
4 3 1 -1002 -1059 1060 0
1059 -1031 0
1059 -1058 0
-884 -881 -878 -1057 -1052 -1047 -671 1058 0
1057 -1056 0
1057 -964 0
-943 -926 -909 -1055 -1054 1056 0
1055 -949 0
1055 -925 0
1055 -750 0
1055 -751 0
1055 -752 0
1055 -753 0
1054 -1053 0
1054 -908 0
1054 -750 0
1054 -751 0
1054 -752 0
1054 -753 0
-953 -952 -951 1053 0
1052 -1051 0
1052 -989 0
-968 -967 -966 -1050 -1049 1051 0
1050 -974 0
1050 -942 0
1050 -750 0
1050 -751 0
1050 -752 0
1050 -753 0
1049 -1048 0
1049 -908 0
1049 -750 0
1049 -751 0
1049 -752 0
1049 -753 0
-978 -977 -976 1048 0
1047 -1045 0
1047 -1046 0
-999 -996 -993 1046 0
-1044 -1043 -1042 -1041 -1036 1045 0
1044 -908 0
1044 -750 0
1044 -751 0
1044 -752 0
1044 -753 0
1043 -925 0
1043 -850 0
1043 -750 0
1043 -751 0
1043 -752 0
1043 -753 0
1042 -942 0
1042 -727 0
1042 -750 0
1042 -751 0
1042 -752 0
1042 -753 0
1041 -1040 0
1041 -925 0
1041 -750 0
1041 -751 0
1041 -752 0
1041 -753 0
-1039 -1038 -1037 1040 0
1039 -850 0
1039 -750 0
1039 -751 0
1039 -752 0
1039 -753 0
1038 -727 0
1038 -868 0
1038 -750 0
1038 -751 0
1038 -752 0
1038 -753 0
1037 -908 0
1037 -798 0
1037 -750 0
1037 -751 0
1037 -752 0
1037 -753 0
1036 -1035 0
1036 -942 0
1036 -750 0
1036 -751 0
1036 -752 0
1036 -753 0
-1034 -1033 -1032 1035 0
1034 -727 0
1034 -750 0
1034 -751 0
1034 -752 0
1034 -753 0
1033 -776 0
1033 -850 0
1033 -750 0
1033 -751 0
1033 -752 0
1033 -753 0
1032 -908 0
1032 -815 0
1032 -750 0
1032 -751 0
1032 -752 0
1032 -753 0
-1030 -222 -221 -219 -216 -212 -209 -206 -203 -200 -197 -193 -184 -174 -171 -157 -146 1031 0
1030 -1019 0
1030 -1024 0
1030 -1029 0
1030 -429 0
1030 -432 0
1030 -435 0
-515 -1028 1029 0
1028 -1026 0
1028 -1027 0
1028 -460 0
1028 -477 0
1028 -494 0
-304 -303 -302 -301 -476 -500 1027 0
-304 -303 -302 -301 -459 -1025 1026 0
1025 -502 0
1025 -503 0
1025 -504 0
-540 -1023 1024 0
1023 -1021 0
1023 -1022 0
1023 -517 0
1023 -518 0
1023 -519 0
-304 -303 -302 -301 -493 -525 1022 0
-304 -303 -302 -301 -459 -1020 1021 0
1020 -527 0
1020 -528 0
1020 -529 0
-1018 -1017 1019 0
1018 -544 0
1018 -547 0
1018 -550 0
1017 -1008 0
1017 -1013 0
1017 -1014 0
1017 -1015 0
1017 -1016 0
-304 -303 -302 -301 -459 1016 0
-304 -303 -302 -301 -401 -476 1015 0
-304 -303 -302 -301 -278 -493 1014 0
-304 -303 -302 -301 -476 -1012 1013 0
1012 -1009 0
1012 -1010 0
1012 -1011 0
-304 -303 -302 -301 -401 1011 0
-304 -303 -302 -301 -419 -278 1010 0
-304 -303 -302 -301 -349 -459 1009 0
-304 -303 -302 -301 -493 -1007 1008 0
1007 -1004 0
1007 -1005 0
1007 -1006 0
-304 -303 -302 -301 -278 1006 0
-304 -303 -302 -301 -401 -327 1005 0
-304 -303 -302 -301 -366 -459 1004 0
4 3 2 -1002 -1001 1003 0
1002 -4 0
1002 -3 0
1002 -2 0
1002 -1 0
1001 -552 0
1001 -1000 0
-999 -996 -993 -990 -965 -886 -671 1000 0
999 -997 0
999 -998 0
999 -104 0
999 -80 0
-20 -32 998 0
-31 20 997 0
996 -994 0
996 -103 0
996 -79 0
996 -995 0
-20 -28 995 0
-27 20 994 0
993 -991 0
993 -992 0
993 -102 0
993 -78 0
-23 20 992 0
-20 -24 991 0
990 -979 0
990 -989 0
-988 -985 -982 989 0
988 -986 0
988 -987 0
988 -80 0
988 -30 0
-18 -32 987 0
-31 18 986 0
985 -983 0
985 -984 0
985 -79 0
985 -26 0
-18 -28 984 0
-27 18 983 0
982 -980 0
982 -981 0
982 -78 0
982 -22 0
-23 18 981 0
-18 -24 980 0
-978 -977 -976 -975 -970 979 0
978 -834 0
978 -750 0
978 -751 0
978 -752 0
978 -753 0
977 -699 0
977 -776 0
977 -750 0
977 -751 0
977 -752 0
977 -753 0
976 -925 0
976 -749 0
976 -750 0
976 -751 0
976 -752 0
976 -753 0
975 -974 0
975 -699 0
975 -750 0
975 -751 0
975 -752 0
975 -753 0
-973 -972 -971 974 0
973 -776 0
973 -750 0
973 -751 0
973 -752 0
973 -753 0
972 -925 0
972 -815 0
972 -750 0
972 -751 0
972 -752 0
972 -753 0
971 -834 0
971 -727 0
971 -750 0
971 -751 0
971 -752 0
971 -753 0
970 -969 0
970 -749 0
970 -750 0
970 -751 0
970 -752 0
970 -753 0
-968 -967 -966 969 0
968 -942 0
968 -776 0
968 -750 0
968 -751 0
968 -752 0
968 -753 0
967 -908 0
967 -834 0
967 -750 0
967 -751 0
967 -752 0
967 -753 0
966 -925 0
966 -750 0
966 -751 0
966 -752 0
966 -753 0
965 -954 0
965 -964 0
-963 -960 -957 964 0
963 -961 0
963 -962 0
963 -30 0
963 -29 0
-5 -32 962 0
-31 5 961 0
960 -958 0
960 -959 0
960 -26 0
960 -25 0
-5 -28 959 0
-27 5 958 0
957 -955 0
957 -956 0
957 -22 0
957 -21 0
-5 -24 956 0
-23 5 955 0
-953 -952 -951 -950 -945 954 0
953 -699 0
953 -750 0
953 -751 0
953 -752 0
953 -753 0
952 -834 0
952 -868 0
952 -750 0
952 -751 0
952 -752 0
952 -753 0
951 -942 0
951 -749 0
951 -750 0
951 -751 0
951 -752 0
951 -753 0
950 -949 0
950 -834 0
950 -750 0
950 -751 0
950 -752 0
950 -753 0
-948 -947 -946 949 0
948 -868 0
948 -750 0
948 -751 0
948 -752 0
948 -753 0
947 -942 0
947 -798 0
947 -750 0
947 -751 0
947 -752 0
947 -753 0
946 -699 0
946 -850 0
946 -750 0
946 -751 0
946 -752 0
946 -753 0
945 -944 0
945 -749 0
945 -750 0
945 -751 0
945 -752 0
945 -753 0
-943 -926 -909 944 0
943 -942 0
943 -750 0
943 -751 0
943 -752 0
943 -753 0
-941 -936 -931 942 0
941 -692 0
941 -937 0
941 -938 0
941 -939 0
941 -696 0
941 -940 0
941 -904 0
941 -905 0
941 -92 0
941 -87 0
941 -71 0
941 -70 0
941 -69 0
941 -68 0
941 -67 0
-35 12 940 0
-12 -38 939 0
-7 -76 938 0
7 -73 937 0
936 -894 0
936 -932 0
936 -933 0
936 -685 0
936 -686 0
936 -934 0
936 -91 0
936 -935 0
936 -899 0
936 -84 0
936 -58 0
936 -57 0
936 -56 0
936 -55 0
936 -54 0
-7 -63 935 0
-12 -36 934 0
7 -60 933 0
-34 12 932 0
931 -927 0
931 -928 0
931 -929 0
931 -676 0
931 -930 0
931 -90 0
931 -891 0
931 -892 0
931 -679 0
931 -81 0
931 -45 0
931 -44 0
931 -43 0
931 -42 0
931 -41 0
-7 -50 930 0
7 -47 929 0
-12 -37 928 0
-33 12 927 0
926 -925 0
926 -868 0
926 -750 0
926 -751 0
926 -752 0
926 -753 0
-924 -919 -914 925 0
924 -769 0
924 -770 0
924 -920 0
924 -921 0
924 -922 0
924 -904 0
924 -905 0
924 -95 0
924 -92 0
924 -88 0
924 -87 0
924 -923 0
924 -70 0
924 -69 0
924 -68 0
-16 -76 923 0
-8 -38 922 0
-35 8 921 0
16 -73 920 0
919 -894 0
919 -915 0
919 -916 0
919 -917 0
919 -764 0
919 -765 0
919 -918 0
919 -94 0
919 -91 0
919 -899 0
919 -85 0
919 -84 0
919 -57 0
919 -56 0
919 -55 0
-34 8 918 0
-16 -63 917 0
16 -60 916 0
-8 -36 915 0
914 -910 0
914 -911 0
914 -912 0
914 -757 0
914 -758 0
914 -93 0
914 -90 0
914 -891 0
914 -892 0
914 -82 0
914 -81 0
914 -44 0
914 -43 0
914 -42 0
914 -913 0
-8 -37 913 0
-16 -50 912 0
16 -47 911 0
-33 8 910 0
909 -908 0
909 -699 0
909 -750 0
909 -751 0
909 -752 0
909 -753 0
-907 -900 -893 908 0
907 -901 0
907 -720 0
907 -721 0
907 -902 0
907 -903 0
907 -904 0
907 -905 0
907 -98 0
907 -92 0
907 -89 0
907 -88 0
907 -87 0
907 -906 0
907 -71 0
907 -68 0
-15 -76 906 0
-19 -75 905 0
19 -72 904 0
-13 -38 903 0
-35 13 902 0
15 -73 901 0
900 -894 0
900 -895 0
900 -896 0
900 -712 0
900 -713 0
900 -897 0
900 -898 0
900 -97 0
900 -91 0
900 -899 0
900 -86 0
900 -85 0
900 -84 0
900 -58 0
900 -55 0
-19 -62 899 0
-15 -63 898 0
15 -60 897 0
-13 -36 896 0
-34 13 895 0
19 -59 894 0
893 -887 0
893 -888 0
893 -704 0
893 -889 0
893 -890 0
893 -96 0
893 -90 0
893 -891 0
893 -892 0
893 -706 0
893 -83 0
893 -82 0
893 -81 0
893 -45 0
893 -42 0
-19 -49 892 0
19 -46 891 0
-15 -50 890 0
15 -47 889 0
-13 -37 888 0
-33 13 887 0
886 -875 0
886 -885 0
-884 -881 -878 885 0
884 -882 0
884 -883 0
884 -80 0
884 -30 0
-31 19 883 0
-19 -32 882 0
881 -879 0
881 -880 0
881 -79 0
881 -26 0
-27 19 880 0
-19 -28 879 0
878 -876 0
878 -877 0
878 -78 0
878 -22 0
-23 19 877 0
-19 -24 876 0
-874 -873 -872 -871 -818 875 0
874 -749 0
874 -750 0
874 -751 0
874 -752 0
874 -753 0
873 -834 0
873 -798 0
873 -750 0
873 -751 0
873 -752 0
873 -753 0
872 -699 0
872 -815 0
872 -750 0
872 -751 0
872 -752 0
872 -753 0
871 -834 0
871 -870 0
871 -750 0
871 -751 0
871 -752 0
871 -753 0
-869 -852 -851 870 0
869 -868 0
869 -815 0
869 -750 0
869 -751 0
869 -752 0
869 -753 0
-867 -862 -857 868 0
867 -791 0
867 -863 0
867 -692 0
867 -864 0
867 -865 0
867 -696 0
867 -866 0
867 -795 0
867 -95 0
867 -92 0
867 -87 0
867 -70 0
867 -69 0
867 -68 0
867 -67 0
-35 11 866 0
-6 -76 865 0
-11 -38 864 0
6 -73 863 0
862 -784 0
862 -785 0
862 -858 0
862 -685 0
862 -686 0
862 -859 0
862 -860 0
862 -861 0
862 -94 0
862 -91 0
862 -84 0
862 -57 0
862 -56 0
862 -55 0
862 -54 0
6 -60 861 0
-6 -63 860 0
-11 -36 859 0
-34 11 858 0
857 -777 0
857 -778 0
857 -853 0
857 -854 0
857 -855 0
857 -676 0
857 -93 0
857 -90 0
857 -856 0
857 -679 0
857 -81 0
857 -44 0
857 -43 0
857 -42 0
857 -41 0
-6 -50 856 0
6 -47 855 0
-11 -37 854 0
-33 11 853 0
852 -798 0
852 -750 0
852 -751 0
852 -752 0
852 -753 0
851 -749 0
851 -850 0
851 -750 0
851 -751 0
851 -752 0
851 -753 0
-849 -844 -839 850 0
849 -791 0
849 -845 0
849 -720 0
849 -721 0
849 -846 0
849 -847 0
849 -795 0
849 -98 0
849 -92 0
849 -88 0
849 -87 0
849 -848 0
849 -71 0
849 -70 0
849 -68 0
-10 -76 848 0
-17 -38 847 0
-35 17 846 0
10 -73 845 0
844 -784 0
844 -785 0
844 -840 0
844 -712 0
844 -713 0
844 -841 0
844 -842 0
844 -843 0
844 -97 0
844 -91 0
844 -85 0
844 -84 0
844 -58 0
844 -57 0
844 -55 0
-17 -36 843 0
-10 -63 842 0
10 -60 841 0
-34 17 840 0
839 -777 0
839 -778 0
839 -704 0
839 -835 0
839 -836 0
839 -837 0
839 -838 0
839 -96 0
839 -90 0
839 -706 0
839 -82 0
839 -81 0
839 -45 0
839 -44 0
839 -42 0
-17 -37 838 0
-33 17 837 0
-10 -50 836 0
10 -47 835 0
-833 -828 -823 834 0
833 -769 0
833 -770 0
833 -829 0
833 -690 0
833 -691 0
833 -830 0
833 -831 0
833 -101 0
833 -92 0
833 -88 0
833 -87 0
833 -832 0
833 -71 0
833 -70 0
833 -69 0
-17 -76 832 0
-35 10 831 0
-10 -38 830 0
17 -73 829 0
828 -824 0
828 -825 0
828 -681 0
828 -764 0
828 -765 0
828 -826 0
828 -827 0
828 -100 0
828 -91 0
828 -688 0
828 -85 0
828 -84 0
828 -58 0
828 -57 0
828 -56 0
-10 -36 827 0
-34 10 826 0
-17 -63 825 0
17 -60 824 0
823 -819 0
823 -820 0
823 -821 0
823 -672 0
823 -673 0
823 -757 0
823 -758 0
823 -822 0
823 -99 0
823 -90 0
823 -82 0
823 -81 0
823 -45 0
823 -44 0
823 -43 0
-10 -37 822 0
-17 -50 821 0
17 -47 820 0
-33 10 819 0
818 -699 0
818 -817 0
818 -750 0
818 -751 0
818 -752 0
818 -753 0
-816 -799 -754 817 0
816 -815 0
816 -750 0
816 -751 0
816 -752 0
816 -753 0
-814 -809 -804 815 0
814 -810 0
814 -722 0
814 -811 0
814 -745 0
814 -746 0
814 -725 0
814 -88 0
814 -87 0
814 -812 0
814 -813 0
814 -71 0
814 -70 0
814 -69 0
814 -68 0
814 -66 0
-7 -38 813 0
-12 -76 812 0
-35 7 811 0
12 -73 810 0
809 -805 0
809 -711 0
809 -737 0
809 -739 0
809 -806 0
809 -807 0
809 -808 0
809 -716 0
809 -85 0
809 -84 0
809 -58 0
809 -57 0
809 -56 0
809 -55 0
809 -53 0
12 -60 808 0
-34 7 807 0
-12 -63 806 0
-7 -36 805 0
804 -800 0
804 -801 0
804 -703 0
804 -730 0
804 -802 0
804 -705 0
804 -732 0
804 -82 0
804 -81 0
804 -45 0
804 -44 0
804 -43 0
804 -42 0
804 -40 0
804 -803 0
-7 -37 803 0
-12 -50 802 0
12 -47 801 0
-33 7 800 0
799 -776 0
799 -798 0
799 -750 0
799 -751 0
799 -752 0
799 -753 0
-797 -790 -783 798 0
797 -791 0
797 -792 0
797 -793 0
797 -794 0
797 -745 0
797 -746 0
797 -795 0
797 -796 0
797 -92 0
797 -89 0
797 -88 0
797 -87 0
797 -71 0
797 -69 0
797 -68 0
-16 -38 796 0
-18 -75 795 0
-35 16 794 0
-8 -76 793 0
8 -73 792 0
18 -72 791 0
790 -784 0
790 -785 0
790 -786 0
790 -787 0
790 -737 0
790 -788 0
790 -739 0
790 -91 0
790 -789 0
790 -86 0
790 -85 0
790 -84 0
790 -58 0
790 -56 0
790 -55 0
-8 -63 789 0
-16 -36 788 0
-34 16 787 0
8 -60 786 0
-18 -62 785 0
18 -59 784 0
783 -777 0
783 -778 0
783 -779 0
783 -780 0
783 -781 0
783 -730 0
783 -782 0
783 -90 0
783 -732 0
783 -83 0
783 -82 0
783 -81 0
783 -45 0
783 -43 0
783 -42 0
-8 -50 782 0
-16 -37 781 0
-33 16 780 0
8 -47 779 0
-18 -49 778 0
18 -46 777 0
-775 -768 -761 776 0
775 -769 0
775 -770 0
775 -771 0
775 -722 0
775 -725 0
775 -89 0
775 -88 0
775 -87 0
775 -772 0
775 -773 0
775 -774 0
775 -71 0
775 -69 0
775 -68 0
775 -66 0
-11 -76 774 0
-6 -38 773 0
-35 6 772 0
11 -73 771 0
-18 -77 770 0
18 -74 769 0
768 -762 0
768 -711 0
768 -763 0
768 -764 0
768 -765 0
768 -766 0
768 -767 0
768 -716 0
768 -86 0
768 -85 0
768 -84 0
768 -58 0
768 -56 0
768 -55 0
768 -53 0
-34 6 767 0
-6 -36 766 0
-18 -64 765 0
18 -61 764 0
-11 -63 763 0
11 -60 762 0
761 -755 0
761 -756 0
761 -703 0
761 -757 0
761 -758 0
761 -759 0
761 -705 0
761 -760 0
761 -83 0
761 -82 0
761 -81 0
761 -45 0
761 -43 0
761 -42 0
761 -40 0
-6 -37 760 0
-33 6 759 0
-18 -51 758 0
18 -48 757 0
-11 -50 756 0
11 -47 755 0
754 -727 0
754 -749 0
754 -750 0
754 -751 0
754 -752 0
754 -753 0
-37 36 753 0
-36 38 752 0
-35 34 751 0
-34 33 750 0
-748 -741 -734 749 0
748 -742 0
748 -690 0
748 -691 0
748 -743 0
748 -744 0
748 -745 0
748 -746 0
748 -101 0
748 -95 0
748 -92 0
748 -88 0
748 -87 0
748 -747 0
748 -70 0
748 -69 0
-13 -76 747 0
-19 -77 746 0
19 -74 745 0
-15 -38 744 0
-35 15 743 0
13 -73 742 0
741 -735 0
741 -736 0
741 -681 0
741 -737 0
741 -738 0
741 -739 0
741 -740 0
741 -100 0
741 -94 0
741 -91 0
741 -688 0
741 -85 0
741 -84 0
741 -57 0
741 -56 0
-13 -63 740 0
-19 -64 739 0
-34 15 738 0
19 -61 737 0
13 -60 736 0
-15 -36 735 0
734 -728 0
734 -729 0
734 -672 0
734 -673 0
734 -730 0
734 -731 0
734 -99 0
734 -93 0
734 -90 0
734 -732 0
734 -82 0
734 -81 0
734 -44 0
734 -43 0
734 -733 0
-15 -37 733 0
-19 -51 732 0
-13 -50 731 0
19 -48 730 0
13 -47 729 0
-33 15 728 0
-726 -717 -708 727 0
726 -718 0
726 -719 0
726 -720 0
726 -721 0
726 -722 0
726 -723 0
726 -724 0
726 -725 0
726 -98 0
726 -88 0
726 -87 0
726 -71 0
726 -70 0
726 -68 0
726 -66 0
-5 -75 725 0
-9 -38 724 0
-35 9 723 0
5 -72 722 0
-20 -77 721 0
20 -74 720 0
-14 -76 719 0
14 -73 718 0
717 -709 0
717 -710 0
717 -711 0
717 -712 0
717 -713 0
717 -714 0
717 -715 0
717 -97 0
717 -716 0
717 -85 0
717 -84 0
717 -58 0
717 -57 0
717 -55 0
717 -53 0
-5 -62 716 0
-9 -36 715 0
-14 -63 714 0
-20 -64 713 0
20 -61 712 0
5 -59 711 0
-34 9 710 0
14 -60 709 0
708 -700 0
708 -701 0
708 -702 0
708 -703 0
708 -704 0
708 -705 0
708 -96 0
708 -706 0
708 -82 0
708 -81 0
708 -45 0
708 -44 0
708 -42 0
708 -40 0
708 -707 0
-9 -37 707 0
-20 -51 706 0
-5 -49 705 0
20 -48 704 0
5 -46 703 0
-33 9 702 0
-14 -50 701 0
14 -47 700 0
-698 -689 -680 699 0
698 -690 0
698 -691 0
698 -692 0
698 -693 0
698 -694 0
698 -695 0
698 -696 0
698 -697 0
698 -101 0
698 -92 0
698 -87 0
698 -71 0
698 -70 0
698 -69 0
698 -67 0
-9 -76 697 0
-5 -77 696 0
-14 -38 695 0
-35 14 694 0
9 -73 693 0
5 -74 692 0
-20 -75 691 0
20 -72 690 0
689 -681 0
689 -682 0
689 -683 0
689 -684 0
689 -685 0
689 -686 0
689 -100 0
689 -91 0
689 -687 0
689 -688 0
689 -84 0
689 -58 0
689 -57 0
689 -56 0
689 -54 0
-20 -62 688 0
-9 -63 687 0
-5 -64 686 0
5 -61 685 0
9 -60 684 0
-14 -36 683 0
-34 14 682 0
20 -59 681 0
680 -672 0
680 -673 0
680 -674 0
680 -675 0
680 -676 0
680 -677 0
680 -678 0
680 -99 0
680 -90 0
680 -679 0
680 -81 0
680 -45 0
680 -44 0
680 -43 0
680 -41 0
-5 -51 679 0
-33 14 678 0
-9 -50 677 0
5 -48 676 0
9 -47 675 0
-14 -37 674 0
-20 -49 673 0
20 -46 672 0
671 -594 0
671 -605 0
671 -615 0
671 -629 0
671 -636 0
671 -642 0
671 -645 0
671 -648 0
671 -651 0
671 -654 0
671 -657 0
671 -660 0
671 -664 0
671 -667 0
671 -669 0
671 -670 0
20 -662 -665 -668 670 0
19 -663 -666 -668 669 0
668 -603 0
668 -613 0
5 -661 -666 -665 667 0
666 -609 0
666 -563 0
665 -598 0
665 -579 0
18 -663 -662 -661 664 0
663 -574 0
663 -640 0
662 -590 0
662 -626 0
661 -633 0
661 -599 0
9 -586 -585 -597 -595 -659 -658 660 0
659 -603 0
659 -609 0
658 -633 0
658 -590 0
6 -621 -620 -632 -631 -656 -655 657 0
656 -598 0
656 -626 0
655 -609 0
655 -640 0
13 -581 -580 -602 -601 -653 -652 654 0
653 -590 0
653 -640 0
652 -598 0
652 -563 0
8 -617 -616 -639 -638 -650 -649 651 0
650 -603 0
650 -626 0
649 -563 0
649 -633 0
12 -562 -561 -560 -556 -647 -646 648 0
647 -603 0
647 -579 0
646 -599 0
646 -640 0
15 -565 -564 -612 -611 -644 -643 645 0
644 -626 0
644 -574 0
643 -579 0
643 -609 0
10 -625 -624 -623 -619 -641 -637 642 0
641 -613 0
641 -640 0
8 -617 -616 -639 -638 640 0
639 -622 0
639 12 0
638 -630 0
638 13 0
637 -579 0
637 -633 0
7 -569 -568 -608 -606 -635 -634 636 0
635 -613 0
635 -598 0
634 -633 0
634 -574 0
6 -621 -620 -632 -631 633 0
632 -618 0
632 7 0
631 -630 0
631 9 0
10 -625 -624 630 0
14 -554 -553 -578 -577 -628 -627 629 0
628 -613 0
628 -563 0
627 -599 0
627 -626 0
10 -625 -624 -623 -619 626 0
625 14 0
625 6 0
624 15 0
624 8 0
623 -622 0
623 14 0
6 -621 -620 622 0
621 10 0
621 9 0
620 8 0
620 7 0
619 -618 0
619 15 0
8 -617 -616 618 0
617 12 0
617 6 0
616 10 0
616 13 0
16 -573 -572 -571 -567 -614 -610 615 0
614 -613 0
614 -590 0
15 -565 -564 -612 -611 613 0
612 -570 0
612 14 0
611 -607 0
611 10 0
610 -609 0
610 -599 0
7 -569 -568 -608 -606 609 0
608 -607 0
608 6 0
16 -573 -572 607 0
606 -566 0
606 9 0
17 -589 -588 -584 -583 -604 -600 605 0
604 -603 0
604 -574 0
13 -581 -580 -602 -601 603 0
602 -587 0
602 12 0
601 -596 0
601 8 0
600 -598 0
600 -599 0
11 -558 -557 -593 -592 599 0
9 -586 -585 -597 -595 598 0
597 -596 0
597 6 0
17 -589 -584 596 0
595 -582 0
595 7 0
11 -558 -557 -593 -592 -591 -575 594 0
593 -576 0
593 16 0
592 -555 0
592 17 0
591 -579 0
591 -590 0
17 -589 -588 -584 -583 590 0
589 16 0
589 13 0
588 -587 0
588 11 0
9 -586 -585 587 0
586 7 0
586 13 0
585 17 0
585 6 0
584 11 0
584 9 0
583 -582 0
583 16 0
13 -581 -580 582 0
581 8 0
581 17 0
580 12 0
580 9 0
14 -554 -553 -578 -577 579 0
578 -559 0
578 10 0
577 -576 0
577 15 0
12 -562 -561 576 0
575 -563 0
575 -574 0
16 -573 -572 -571 -567 574 0
573 11 0
573 7 0
572 15 0
572 17 0
571 -570 0
571 11 0
7 -569 -568 570 0
569 16 0
569 6 0
568 15 0
568 9 0
567 -566 0
567 17 0
15 -565 -564 566 0
565 10 0
565 16 0
564 14 0
564 7 0
12 -562 -561 -560 -556 563 0
562 11 0
562 8 0
561 14 0
561 13 0
560 -559 0
560 8 0
11 -558 -557 559 0
558 14 0
558 17 0
557 12 0
557 16 0
556 -555 0
556 13 0
14 -554 -553 555 0
554 10 0
554 11 0
553 12 0
553 15 0
-551 -222 -221 -219 -216 -212 -209 -206 -203 -200 -197 -193 -184 -174 -171 -157 -146 552 0
551 -437 0
551 -516 0
551 -541 0
551 -544 0
551 -547 0
551 -550 0
80 104 -549 -548 550 0
549 32 0
549 20 0
548 31 0
548 -20 0
-546 79 103 -545 547 0
546 28 0
546 20 0
545 27 0
545 -20 0
78 102 -543 -542 544 0
543 23 0
543 -20 0
542 20 0
542 24 0
-540 -530 541 0
540 -533 0
540 -536 0
540 -539 0
30 80 -538 -537 539 0
538 32 0
538 18 0
537 31 0
537 -18 0
26 79 -535 -534 536 0
535 28 0
535 18 0
534 27 0
534 -18 0
22 78 -532 -531 533 0
532 23 0
532 -18 0
531 18 0
531 24 0
530 -521 0
530 -526 0
530 -527 0
530 -528 0
530 -529 0
-304 -303 -302 -301 -385 529 0
-304 -303 -302 -301 -327 -250 528 0
-304 -303 -302 -301 -300 -476 527 0
-304 -303 -302 -301 -250 -525 526 0
525 -522 0
525 -523 0
525 -524 0
-304 -303 -302 -301 -327 524 0
-304 -303 -302 -301 -366 -476 523 0
-304 -303 -302 -301 -278 -385 522 0
-304 -303 -302 -301 -300 -520 521 0
520 -517 0
520 -518 0
520 -519 0
-304 -303 -302 -301 -327 -493 519 0
-304 -303 -302 -301 -385 -459 518 0
-304 -303 -302 -301 -476 517 0
-515 -505 516 0
515 -508 0
515 -511 0
515 -514 0
30 29 -513 -512 514 0
513 32 0
513 5 0
512 31 0
512 -5 0
25 26 -510 -509 511 0
510 28 0
510 5 0
509 27 0
509 -5 0
22 21 -507 -506 508 0
507 24 0
507 5 0
506 23 0
506 -5 0
505 -496 0
505 -501 0
505 -502 0
505 -503 0
505 -504 0
-304 -303 -302 -301 -250 504 0
-304 -303 -302 -301 -419 -385 503 0
-304 -303 -302 -301 -300 -493 502 0
-304 -303 -302 -301 -385 -500 501 0
500 -497 0
500 -498 0
500 -499 0
-304 -303 -302 -301 -419 499 0
-304 -303 -302 -301 -349 -493 498 0
-304 -303 -302 -301 -401 -250 497 0
-304 -303 -302 -301 -300 -495 496 0
495 -460 0
495 -477 0
495 -494 0
-304 -303 -302 -301 -493 494 0
493 -482 0
493 -487 0
493 -492 0
69 68 67 71 70 87 92 -456 -455 -491 -247 -490 -489 -488 -243 492 0
491 35 0
491 -12 0
490 38 0
490 12 0
489 76 0
489 7 0
488 73 0
488 -7 0
54 56 55 58 57 84 -450 -486 91 -485 -237 -236 -484 -483 -445 487 0
486 63 0
486 7 0
485 36 0
485 12 0
484 60 0
484 -7 0
483 34 0
483 -12 0
81 45 43 44 42 41 -230 -443 -442 90 -481 -227 -480 -479 -478 482 0
481 50 0
481 7 0
480 47 0
480 -7 0
479 37 0
479 12 0
478 33 0
478 -12 0
-304 -303 -302 -301 -419 -476 477 0
476 -465 0
476 -470 0
476 -475 0
69 68 70 -474 88 87 95 92 -456 -455 -473 -472 -471 -321 -320 475 0
474 76 0
474 16 0
473 38 0
473 8 0
472 35 0
472 -8 0
471 73 0
471 -16 0
56 55 57 85 84 -450 91 94 -469 -316 -315 -468 -467 -466 -445 470 0
469 34 0
469 -8 0
468 63 0
468 16 0
467 60 0
467 -16 0
466 36 0
466 8 0
-464 81 43 82 44 42 -443 -442 90 93 -309 -308 -463 -462 -461 465 0
464 37 0
464 8 0
463 50 0
463 16 0
462 47 0
462 -16 0
461 33 0
461 -8 0
-304 -303 -302 -301 -250 -459 460 0
459 -444 0
459 -451 0
459 -458 0
68 71 -457 98 89 88 87 92 -456 -455 -454 -453 -272 -271 -452 458 0
457 76 0
457 15 0
456 75 0
456 19 0
455 72 0
455 -19 0
454 38 0
454 13 0
453 35 0
453 -13 0
452 73 0
452 -15 0
55 58 86 85 84 -450 91 97 -449 -448 -264 -263 -447 -446 -445 451 0
450 62 0
450 19 0
449 63 0
449 15 0
448 60 0
448 -15 0
447 36 0
447 13 0
446 34 0
446 -13 0
445 59 0
445 -19 0
81 45 83 82 42 -257 -443 -442 90 96 -441 -440 -255 -439 -438 444 0
443 49 0
443 19 0
442 46 0
442 -19 0
441 50 0
441 15 0
440 47 0
440 -15 0
439 37 0
439 13 0
438 33 0
438 -13 0
-436 -426 437 0
436 -429 0
436 -432 0
436 -435 0
30 80 -434 -433 435 0
434 31 0
434 -19 0
433 32 0
433 19 0
26 79 -431 -430 432 0
431 27 0
431 -19 0
430 28 0
430 19 0
22 78 -428 -427 429 0
428 23 0
428 -19 0
427 19 0
427 24 0
426 -369 0
426 -422 0
426 -423 0
426 -424 0
426 -425 0
-304 -303 -302 -301 -300 425 0
-304 -303 -302 -301 -349 -385 424 0
-304 -303 -302 -301 -366 -250 423 0
-304 -303 -302 -301 -421 -385 422 0
421 -402 0
421 -403 0
421 -420 0
-304 -303 -302 -301 -366 -419 420 0
419 -408 0
419 -413 0
419 -418 0
69 68 67 70 87 95 92 -346 -417 -247 -416 -415 -243 -414 -342 418 0
417 35 0
417 -11 0
416 76 0
416 6 0
415 38 0
415 11 0
414 73 0
414 -6 0
54 56 55 57 84 91 94 -412 -411 -410 -237 -236 -409 -336 -335 413 0
412 60 0
412 -6 0
411 63 0
411 6 0
410 36 0
410 11 0
409 34 0
409 -11 0
81 43 44 42 41 -230 -407 90 93 -227 -406 -405 -404 -329 -328 408 0
407 50 0
407 6 0
406 47 0
406 -6 0
405 37 0
405 11 0
404 33 0
404 -11 0
-304 -303 -302 -301 -349 403 0
-304 -303 -302 -301 -401 -300 402 0
401 -390 0
401 -395 0
401 -400 0
68 71 70 -399 98 88 87 92 -346 -398 -397 -272 -271 -396 -342 400 0
399 76 0
399 10 0
398 38 0
398 17 0
397 35 0
397 -17 0
396 73 0
396 -10 0
55 58 57 85 84 91 97 -394 -393 -392 -264 -263 -391 -336 -335 395 0
394 36 0
394 17 0
393 63 0
393 10 0
392 60 0
392 -10 0
391 34 0
391 -17 0
81 45 82 44 42 -257 90 96 -389 -388 -387 -386 -255 -329 -328 390 0
389 37 0
389 17 0
388 33 0
388 -17 0
387 50 0
387 10 0
386 47 0
386 -10 0
385 -374 0
385 -379 0
385 -384 0
69 71 70 -383 88 87 101 92 -382 -381 -242 -241 -380 -321 -320 384 0
383 76 0
383 17 0
382 35 0
382 -10 0
381 38 0
381 10 0
380 73 0
380 -17 0
56 58 57 85 84 -239 91 100 -378 -377 -316 -315 -232 -376 -375 379 0
378 36 0
378 10 0
377 34 0
377 -10 0
376 63 0
376 17 0
375 60 0
375 -17 0
81 45 43 82 44 90 99 -373 -309 -308 -224 -223 -372 -371 -370 374 0
373 37 0
373 10 0
372 50 0
372 17 0
371 47 0
371 -17 0
370 33 0
370 -10 0
-304 -303 -302 -301 -368 -250 369 0
368 -305 0
368 -350 0
368 -367 0
-304 -303 -302 -301 -366 367 0
366 -355 0
366 -360 0
366 -365 0
69 68 66 -364 -363 71 70 88 87 -276 -297 -296 -362 -273 -361 365 0
364 38 0
364 7 0
363 76 0
363 12 0
362 35 0
362 -7 0
361 73 0
361 -12 0
53 56 55 58 57 85 84 -267 -359 -358 -357 -290 -288 -262 -356 360 0
359 60 0
359 -12 0
358 34 0
358 -7 0
357 63 0
357 12 0
356 36 0
356 7 0
-354 81 45 43 40 82 44 42 -283 -256 -353 -281 -254 -352 -351 355 0
354 37 0
354 7 0
353 50 0
353 12 0
352 47 0
352 -12 0
351 33 0
351 -7 0
-304 -303 -302 -301 -349 -327 350 0
349 -334 0
349 -341 0
349 -348 0
69 68 71 89 88 87 92 -347 -346 -297 -296 -345 -344 -343 -342 348 0
347 38 0
347 16 0
346 75 0
346 18 0
345 35 0
345 -16 0
344 76 0
344 8 0
343 73 0
343 -8 0
342 72 0
342 -18 0
56 55 58 86 85 84 -340 91 -290 -339 -288 -338 -337 -336 -335 341 0
340 63 0
340 8 0
339 36 0
339 16 0
338 34 0
338 -16 0
337 60 0
337 -8 0
336 62 0
336 18 0
335 59 0
335 -18 0
81 45 43 83 82 42 -283 90 -333 -281 -332 -331 -330 -329 -328 334 0
333 50 0
333 8 0
332 37 0
332 16 0
331 33 0
331 -16 0
330 47 0
330 -8 0
329 49 0
329 18 0
328 46 0
328 -18 0
327 -312 0
327 -319 0
327 -326 0
69 68 66 -325 71 -324 -323 89 88 87 -276 -273 -322 -321 -320 326 0
325 76 0
325 11 0
324 38 0
324 6 0
323 35 0
323 -6 0
322 73 0
322 -11 0
321 77 0
321 18 0
320 74 0
320 -18 0
53 56 55 58 86 85 84 -267 -318 -317 -316 -315 -314 -262 -313 319 0
318 34 0
318 -6 0
317 36 0
317 6 0
316 64 0
316 18 0
315 61 0
315 -18 0
314 63 0
314 11 0
313 60 0
313 -11 0
81 45 43 40 83 82 42 -311 -256 -310 -309 -308 -254 -307 -306 312 0
311 37 0
311 6 0
310 33 0
310 -6 0
309 51 0
309 18 0
308 48 0
308 -18 0
307 50 0
307 11 0
306 47 0
306 -11 0
-304 -303 -302 -301 -300 -278 305 0
304 37 0
304 -36 0
303 36 0
303 -38 0
302 35 0
302 -34 0
301 34 0
301 -33 0
300 -285 0
300 -292 0
300 -299 0
69 -298 70 88 87 101 95 92 -297 -296 -295 -294 -242 -241 -293 299 0
298 76 0
298 13 0
297 77 0
297 19 0
296 74 0
296 -19 0
295 38 0
295 15 0
294 35 0
294 -15 0
293 73 0
293 -13 0
56 57 85 84 -239 91 100 94 -291 -290 -289 -288 -232 -287 -286 292 0
291 63 0
291 13 0
290 64 0
290 19 0
289 34 0
289 -15 0
288 61 0
288 -19 0
287 60 0
287 -13 0
286 36 0
286 15 0
-284 81 43 82 44 -283 90 99 93 -282 -281 -224 -223 -280 -279 285 0
284 37 0
284 15 0
283 51 0
283 19 0
282 50 0
282 13 0
281 48 0
281 -19 0
280 47 0
280 -13 0
279 33 0
279 -15 0
278 -259 0
278 -268 0
278 -277 0
68 66 71 70 98 88 87 -276 -275 -274 -273 -272 -271 -270 -269 277 0
276 75 0
276 5 0
275 38 0
275 9 0
274 35 0
274 -9 0
273 72 0
273 -5 0
272 77 0
272 20 0
271 74 0
271 -20 0
270 76 0
270 14 0
269 73 0
269 -14 0
53 55 58 57 85 84 -267 97 -266 -265 -264 -263 -262 -261 -260 268 0
267 62 0
267 5 0
266 36 0
266 9 0
265 63 0
265 14 0
264 64 0
264 20 0
263 61 0
263 -20 0
262 59 0
262 -5 0
261 34 0
261 -9 0
260 60 0
260 -14 0
-258 81 45 40 82 44 42 -257 96 -256 -255 -254 -253 -252 -251 259 0
258 37 0
258 9 0
257 51 0
257 20 0
256 49 0
256 5 0
255 48 0
255 -20 0
254 46 0
254 -5 0
253 33 0
253 -9 0
252 50 0
252 14 0
251 47 0
251 -14 0
250 -231 0
250 -240 0
250 -249 0
69 67 71 70 87 101 92 -248 -247 -246 -245 -244 -243 -242 -241 249 0
248 76 0
248 9 0
247 77 0
247 5 0
246 38 0
246 14 0
245 35 0
245 -14 0
244 73 0
244 -9 0
243 74 0
243 -5 0
242 75 0
242 20 0
241 72 0
241 -20 0
54 56 58 57 84 -239 -238 91 100 -237 -236 -235 -234 -233 -232 240 0
239 62 0
239 20 0
238 63 0
238 9 0
237 64 0
237 5 0
236 61 0
236 -5 0
235 60 0
235 -9 0
234 36 0
234 14 0
233 34 0
233 -14 0
232 59 0
232 -20 0
81 45 43 44 41 -230 90 99 -229 -228 -227 -226 -225 -224 -223 231 0
230 51 0
230 5 0
229 33 0
229 -14 0
228 50 0
228 9 0
227 48 0
227 -5 0
226 47 0
226 -9 0
225 37 0
225 14 0
224 49 0
224 20 0
223 46 0
223 -20 0
222 -217 0
222 -213 0
222 -220 0
222 -18 0
221 -220 0
221 -218 0
221 -214 0
221 -5 0
-142 -182 220 0
219 -217 0
219 -218 0
219 -215 0
219 -19 0
-115 -169 218 0
-188 -155 217 0
216 -213 0
216 -214 0
216 -215 0
216 -20 0
-126 -194 215 0
-151 -178 214 0
-131 -150 213 0
212 -210 0
212 -211 0
212 -180 0
212 -181 0
212 -159 0
212 -160 0
212 -11 0
-169 -188 211 0
-178 -131 210 0
209 -207 0
209 -208 0
209 -128 0
209 -130 0
209 -120 0
209 -121 0
209 -17 0
-151 -182 208 0
-126 -188 207 0
206 -204 0
206 -205 0
206 -186 0
206 -187 0
206 -105 0
206 -106 0
206 -16 0
-115 -182 205 0
-194 -131 204 0
203 -201 0
203 -202 0
203 -175 0
203 -177 0
203 -163 0
203 -164 0
203 -14 0
-182 -150 202 0
-194 -169 201 0
200 -198 0
200 -199 0
200 -108 0
200 -112 0
200 -113 0
200 -114 0
200 -7 0
-142 -188 199 0
-194 -151 198 0
197 -195 0
197 -196 0
197 -148 0
197 -149 0
197 -136 0
197 -137 0
197 -10 0
-178 -142 196 0
-194 -155 195 0
194 -191 0
194 -192 0
194 -109 0
194 -110 0
194 -15 0
193 -189 0
193 -190 0
193 -191 0
193 -192 0
193 -109 0
193 -110 0
193 -15 0
-10 -107 192 0
-14 -185 191 0
-178 -115 190 0
-150 -188 189 0
188 -186 0
188 -187 0
188 -105 0
188 -106 0
188 -16 0
-17 -111 187 0
-11 -185 186 0
185 -113 0
185 -114 0
185 -7 0
184 -179 0
184 -183 0
184 -162 0
184 -166 0
184 -167 0
184 -168 0
184 -12 0
-182 -155 183 0
182 -180 0
182 -181 0
182 -159 0
182 -160 0
182 -11 0
-17 -165 181 0
-16 -176 180 0
-126 -178 179 0
178 -175 0
178 -177 0
178 -163 0
178 -164 0
178 -14 0
-15 -176 177 0
176 -167 0
176 -168 0
176 -12 0
-10 -161 175 0
174 -172 0
174 -173 0
174 -153 0
174 -154 0
174 -132 0
174 -133 0
174 -8 0
-169 -142 173 0
-126 -150 172 0
171 -158 0
171 -170 0
171 -119 0
171 -123 0
171 -124 0
171 -125 0
171 -13 0
-151 -169 170 0
169 -162 0
169 -166 0
169 -167 0
169 -168 0
169 -12 0
-8 -11 168 0
-13 -14 167 0
-13 -165 166 0
165 -163 0
165 -164 0
165 -14 0
-10 -11 164 0
-12 -15 163 0
-8 -161 162 0
161 -159 0
161 -160 0
161 -11 0
-14 -17 160 0
-12 -16 159 0
-131 -155 158 0
157 -152 0
157 -156 0
157 -135 0
157 -139 0
157 -140 0
157 -141 0
157 -6 0
-115 -155 156 0
155 -153 0
155 -154 0
155 -132 0
155 -133 0
155 -8 0
-13 -138 154 0
-12 -147 153 0
-151 -150 152 0
151 -144 0
151 -145 0
151 -116 0
151 -117 0
151 -9 0
150 -148 0
150 -149 0
150 -136 0
150 -137 0
150 -10 0
-15 -134 149 0
-14 -147 148 0
147 -140 0
147 -141 0
147 -6 0
146 -127 0
146 -143 0
146 -144 0
146 -145 0
146 -116 0
146 -117 0
146 -9 0
-7 -129 145 0
-6 -122 144 0
-142 -131 143 0
142 -135 0
142 -139 0
142 -140 0
142 -141 0
142 -6 0
-7 -8 141 0
-9 -10 140 0
-9 -138 139 0
138 -136 0
138 -137 0
138 -10 0
-6 -14 137 0
-8 -15 136 0
-7 -134 135 0
134 -132 0
134 -133 0
134 -8 0
-6 -12 133 0
-10 -13 132 0
131 -128 0
131 -130 0
131 -120 0
131 -121 0
131 -17 0
-16 -129 130 0
129 -124 0
129 -125 0
129 -13 0
-11 -118 128 0
-126 -115 127 0
126 -119 0
126 -123 0
126 -124 0
126 -125 0
126 -13 0
-8 -17 125 0
-9 -12 124 0
-8 -122 123 0
122 -120 0
122 -121 0
122 -17 0
-13 -16 121 0
-9 -11 120 0
-12 -118 119 0
118 -116 0
118 -117 0
118 -9 0
-7 -13 117 0
-6 -17 116 0
115 -108 0
115 -112 0
115 -113 0
115 -114 0
115 -7 0
-6 -16 114 0
-9 -15 113 0
-9 -111 112 0
111 -109 0
111 -110 0
111 -15 0
-10 -16 110 0
-7 -14 109 0
-6 -107 108 0
107 -105 0
107 -106 0
107 -16 0
-7 -11 106 0
-15 -17 105 0
